p cnf 40 131
3 1 0
3 -2 0
-1 2 -3 0
5 1 0
5 4 0
-1 -4 -5 0
-7 -8 -9 0
7 8 -9 0
-7 8 9 0
7 -8 9 0
-10 -6 0
-10 -9 0
6 9 10 0
-12 -4 0
-12 -11 0
4 11 12 0
-12 -11 -13 0
12 11 -13 0
-12 11 13 0
12 -11 13 0
-14 -10 0
-14 13 0
10 -13 14 0
-15 -5 0
-15 14 0
5 -14 15 0
3 -15 -16 0
-3 15 -16 0
3 15 16 0
-3 -15 16 0
17 8 0
17 4 0
-8 -4 -17 0
-7 -17 -18 0
7 17 -18 0
-7 17 18 0
7 -17 18 0
-19 -11 -20 0
19 11 -20 0
-19 11 20 0
19 -11 20 0
21 20 0
21 -8 0
-20 8 -21 0
18 -21 -22 0
-18 21 -22 0
18 21 22 0
-18 -21 22 0
23 -16 0
23 22 0
16 -22 -23 0
-24 19 0
-24 6 0
-19 -6 24 0
-25 24 0
-25 17 0
-24 -17 25 0
7 19 -26 0
-7 -19 -26 0
7 -19 26 0
-7 19 26 0
27 26 0
27 -11 0
-26 11 -27 0
-28 -25 0
-28 27 0
25 -27 28 0
-29 7 0
-29 -26 0
-7 26 29 0
31 -1 0
31 -30 0
1 30 -31 0
20 -32 -33 0
-20 32 -33 0
20 32 33 0
-20 -32 33 0
34 8 0
34 6 0
-8 -6 -34 0
34 6 -35 0
-34 -6 -35 0
34 -6 35 0
-34 6 35 0
36 -33 0
36 -35 0
33 35 -36 0
37 31 0
37 36 0
-31 -36 -37 0
29 -37 -38 0
-29 37 -38 0
29 37 38 0
-29 -37 38 0
39 -28 0
39 -38 0
28 38 -39 0
-40 23 0
-40 -39 0
-23 39 40 0
9 22 26 16 -1 -19 0
9 -32 -1 -5 8 30 0
25 16 11 28 0
-17 -30 0
-7 1 -12 3 27 0
-5 -34 39 28 22 -24 0
-11 -6 -33 -13 -8 0
37 39 -33 28 35 8 0
-9 38 0
28 5 22 -12 -9 21 0
-1 -31 22 21 40 -11 0
22 4 17 -23 -1 0
40 -20 3 8 0
-11 17 12 -21 0
13 -25 29 30 -12 0
-26 16 0
-12 -7 0
30 -29 8 0
27 39 6 -37 0
39 -22 -7 -33 2 -23 0
-16 -10 17 -24 0
-5 10 -4 -11 25 -32 0
-21 5 7 20 -3 0
35 10 -21 12 16 -3 0
15 24 17 0
14 -9 18 -40 0
5 35 0
9 -6 39 -36 -40 -26 0
-14 -1 -21 28 0
-35 -40 23 31 -6 0
40 0
